(set-info :smt-lib-version 2.6)
(set-logic ALIA)
(set-info :source |
Generated by the tool Ultimate Automizer [1,2] which implements
an automata theoretic approach [3] to software verification.

This SMT script belongs to a set of SMT scripts that was generated by
applying Ultimate Automizer to benchmarks [4] from the SV-COMP 2023 [5,6].
This script may not contain all SMT commands that Ultimate Automizer
issued. In order to meet the restrictions for SMT-COMP benchmarks 
we dropped the commands for getting values (resp. models), 
unsatisfiable cores, and interpolants.

2023-03-21, Matthias Heizmann (heizmann@informatik.uni-freiburg.de)

[1] https://ultimate.informatik.uni-freiburg.de/automizer/
[2] Matthias Heizmann, Max Barth, Daniel Dietsch, Leonard Fichtner,
     Jochen Hoenicke, Dominik Klumpp, Mehdi Naouar, Tanja Schindler,
     Frank Schüssele, Andreas Podelski: Ultimate Automizer and the
     CommuHash Normal Form (Competition Contribution). TACAS 2023
[3] Matthias Heizmann, Jochen Hoenicke, Andreas Podelski: Software Model
     Checking for People Who Love Automata. CAV 2013
[4] https://github.com/sosy-lab/sv-benchmarks
[5] Dirk Beyer: Competition on Software Verification and
     Witness Validation: SV-COMP 2023.  TACAS 2023
[6] https://sv-comp.sosy-lab.org/2023/
|)
(set-info :license "https://creativecommons.org/licenses/by/4.0/")
(set-info :category "industrial")
(set-info :status unknown)
(declare-fun ~unnamed0~0~P_ALL () Int)
(declare-fun ~unnamed0~0~P_PID () Int)
(declare-fun ~unnamed0~0~P_PGID () Int)
(declare-fun |c_#memory_$Pointer$.base| () (Array Int (Array Int Int)))
(declare-fun |c_#memory_$Pointer$.offset| () (Array Int (Array Int Int)))
(declare-fun |c_ULTIMATE.start_main_~a~0#1.base| () Int)
(declare-fun |c_ULTIMATE.start_main_~a~0#1.offset| () Int)
(declare-fun |c_ULTIMATE.start_main_~p~0#1.base| () Int)
(declare-fun |c_ULTIMATE.start_main_~p~0#1.offset| () Int)
(assert (= ~unnamed0~0~P_ALL 0))
(assert (= ~unnamed0~0~P_PID 1))
(assert (= 2 ~unnamed0~0~P_PGID))
(assert (let ((.cse5 (= |c_ULTIMATE.start_main_~p~0#1.offset| 0)) (.cse12 (= |c_ULTIMATE.start_main_~a~0#1.offset| 0)) (.cse0 (+ |c_ULTIMATE.start_main_~p~0#1.offset| 4)) (.cse2 (+ |c_ULTIMATE.start_main_~a~0#1.offset| 4))) (and (forall ((v_arrayElimArr_9 (Array Int Int))) (or (not (= (select v_arrayElimArr_9 .cse0) 0)) (forall ((|v_ULTIMATE.start_main_~p~0#1.base_62| Int)) (or (forall ((v_ArrVal_384 (Array Int Int))) (let ((.cse1 (select (select (store (store |c_#memory_$Pointer$.offset| |c_ULTIMATE.start_main_~p~0#1.base| v_arrayElimArr_9) |v_ULTIMATE.start_main_~p~0#1.base_62| v_ArrVal_384) |c_ULTIMATE.start_main_~a~0#1.base|) .cse2))) (or (= |c_ULTIMATE.start_main_~p~0#1.offset| .cse1) (= .cse1 |c_ULTIMATE.start_main_~a~0#1.offset|)))) (= |v_ULTIMATE.start_main_~p~0#1.base_62| |c_ULTIMATE.start_main_~a~0#1.base|) (forall ((v_ArrVal_385 (Array Int Int)) (v_ArrVal_379 (Array Int Int))) (let ((.cse3 (select (select (store (store |c_#memory_$Pointer$.base| |c_ULTIMATE.start_main_~p~0#1.base| v_ArrVal_379) |v_ULTIMATE.start_main_~p~0#1.base_62| v_ArrVal_385) |c_ULTIMATE.start_main_~a~0#1.base|) .cse2))) (or (= .cse3 |v_ULTIMATE.start_main_~p~0#1.base_62|) (= .cse3 |c_ULTIMATE.start_main_~p~0#1.base|)))))))) (or (forall ((|v_ULTIMATE.start_main_~p~0#1.base_62| Int) (v_ArrVal_384 (Array Int Int)) (v_ArrVal_385 (Array Int Int)) (v_arrayElimArr_9 (Array Int Int)) (v_ArrVal_379 (Array Int Int))) (let ((.cse4 (select (select (store (store |c_#memory_$Pointer$.offset| |c_ULTIMATE.start_main_~p~0#1.base| v_arrayElimArr_9) |v_ULTIMATE.start_main_~p~0#1.base_62| v_ArrVal_384) |c_ULTIMATE.start_main_~a~0#1.base|) .cse2))) (or (= |c_ULTIMATE.start_main_~p~0#1.offset| .cse4) (= .cse4 0) (not (= (select v_arrayElimArr_9 .cse0) 0)) (= |v_ULTIMATE.start_main_~p~0#1.base_62| |c_ULTIMATE.start_main_~a~0#1.base|) (= (select (select (store (store |c_#memory_$Pointer$.base| |c_ULTIMATE.start_main_~p~0#1.base| v_ArrVal_379) |v_ULTIMATE.start_main_~p~0#1.base_62| v_ArrVal_385) |c_ULTIMATE.start_main_~a~0#1.base|) .cse2) |c_ULTIMATE.start_main_~a~0#1.base|)))) .cse5) (forall ((v_arrayElimArr_9 (Array Int Int))) (or (forall ((|v_ULTIMATE.start_main_~p~0#1.base_62| Int)) (or (forall ((v_ArrVal_385 (Array Int Int)) (v_ArrVal_379 (Array Int Int))) (let ((.cse6 (select (select (store (store |c_#memory_$Pointer$.base| |c_ULTIMATE.start_main_~p~0#1.base| v_ArrVal_379) |v_ULTIMATE.start_main_~p~0#1.base_62| v_ArrVal_385) |c_ULTIMATE.start_main_~a~0#1.base|) .cse2))) (or (= .cse6 |v_ULTIMATE.start_main_~p~0#1.base_62|) (= .cse6 |c_ULTIMATE.start_main_~p~0#1.base|) (= .cse6 |c_ULTIMATE.start_main_~a~0#1.base|)))) (forall ((v_ArrVal_384 (Array Int Int))) (= |c_ULTIMATE.start_main_~p~0#1.offset| (select (select (store (store |c_#memory_$Pointer$.offset| |c_ULTIMATE.start_main_~p~0#1.base| v_arrayElimArr_9) |v_ULTIMATE.start_main_~p~0#1.base_62| v_ArrVal_384) |c_ULTIMATE.start_main_~a~0#1.base|) .cse2))) (= |v_ULTIMATE.start_main_~p~0#1.base_62| |c_ULTIMATE.start_main_~a~0#1.base|))) (not (= (select v_arrayElimArr_9 .cse0) 0)))) (forall ((v_arrayElimArr_9 (Array Int Int))) (or (not (= (select v_arrayElimArr_9 .cse0) 0)) (forall ((|v_ULTIMATE.start_main_~p~0#1.base_62| Int)) (or (forall ((v_ArrVal_385 (Array Int Int)) (v_ArrVal_379 (Array Int Int))) (= (select (select (store (store |c_#memory_$Pointer$.base| |c_ULTIMATE.start_main_~p~0#1.base| v_ArrVal_379) |v_ULTIMATE.start_main_~p~0#1.base_62| v_ArrVal_385) |c_ULTIMATE.start_main_~a~0#1.base|) .cse2) |v_ULTIMATE.start_main_~p~0#1.base_62|)) (forall ((v_ArrVal_384 (Array Int Int))) (let ((.cse7 (select (select (store (store |c_#memory_$Pointer$.offset| |c_ULTIMATE.start_main_~p~0#1.base| v_arrayElimArr_9) |v_ULTIMATE.start_main_~p~0#1.base_62| v_ArrVal_384) |c_ULTIMATE.start_main_~a~0#1.base|) .cse2))) (or (= |c_ULTIMATE.start_main_~p~0#1.offset| .cse7) (= .cse7 |c_ULTIMATE.start_main_~a~0#1.offset|)))) (= |v_ULTIMATE.start_main_~p~0#1.base_62| |c_ULTIMATE.start_main_~a~0#1.base|))))) (forall ((v_arrayElimArr_9 (Array Int Int))) (or (forall ((|v_ULTIMATE.start_main_~p~0#1.base_62| Int)) (or (forall ((v_ArrVal_384 (Array Int Int))) (let ((.cse8 (select (select (store (store |c_#memory_$Pointer$.offset| |c_ULTIMATE.start_main_~p~0#1.base| v_arrayElimArr_9) |v_ULTIMATE.start_main_~p~0#1.base_62| v_ArrVal_384) |c_ULTIMATE.start_main_~a~0#1.base|) .cse2))) (or (= |c_ULTIMATE.start_main_~p~0#1.offset| .cse8) (= .cse8 0)))) (forall ((v_ArrVal_385 (Array Int Int)) (v_ArrVal_379 (Array Int Int))) (let ((.cse9 (select (select (store (store |c_#memory_$Pointer$.base| |c_ULTIMATE.start_main_~p~0#1.base| v_ArrVal_379) |v_ULTIMATE.start_main_~p~0#1.base_62| v_ArrVal_385) |c_ULTIMATE.start_main_~a~0#1.base|) .cse2))) (or (= .cse9 |c_ULTIMATE.start_main_~p~0#1.base|) (= .cse9 |c_ULTIMATE.start_main_~a~0#1.base|)))) (= |v_ULTIMATE.start_main_~p~0#1.base_62| |c_ULTIMATE.start_main_~a~0#1.base|))) (not (= (select v_arrayElimArr_9 .cse0) 0)))) (forall ((v_arrayElimArr_9 (Array Int Int))) (or (not (= (select v_arrayElimArr_9 .cse0) 0)) (forall ((|v_ULTIMATE.start_main_~p~0#1.base_62| Int)) (or (forall ((v_ArrVal_384 (Array Int Int))) (let ((.cse10 (select (select (store (store |c_#memory_$Pointer$.offset| |c_ULTIMATE.start_main_~p~0#1.base| v_arrayElimArr_9) |v_ULTIMATE.start_main_~p~0#1.base_62| v_ArrVal_384) |c_ULTIMATE.start_main_~a~0#1.base|) .cse2))) (or (= .cse10 0) (= .cse10 |c_ULTIMATE.start_main_~a~0#1.offset|)))) (= |v_ULTIMATE.start_main_~p~0#1.base_62| |c_ULTIMATE.start_main_~a~0#1.base|) (forall ((v_ArrVal_385 (Array Int Int)) (v_ArrVal_379 (Array Int Int))) (= (select (select (store (store |c_#memory_$Pointer$.base| |c_ULTIMATE.start_main_~p~0#1.base| v_ArrVal_379) |v_ULTIMATE.start_main_~p~0#1.base_62| v_ArrVal_385) |c_ULTIMATE.start_main_~a~0#1.base|) .cse2) |c_ULTIMATE.start_main_~p~0#1.base|)))))) (forall ((v_arrayElimArr_9 (Array Int Int))) (or (not (= (select v_arrayElimArr_9 .cse0) 0)) (forall ((|v_ULTIMATE.start_main_~p~0#1.base_62| Int)) (or (forall ((v_ArrVal_385 (Array Int Int)) (v_ArrVal_379 (Array Int Int))) (let ((.cse11 (select (select (store (store |c_#memory_$Pointer$.base| |c_ULTIMATE.start_main_~p~0#1.base| v_ArrVal_379) |v_ULTIMATE.start_main_~p~0#1.base_62| v_ArrVal_385) |c_ULTIMATE.start_main_~a~0#1.base|) .cse2))) (or (= .cse11 |v_ULTIMATE.start_main_~p~0#1.base_62|) (= .cse11 |c_ULTIMATE.start_main_~a~0#1.base|)))) (forall ((v_ArrVal_384 (Array Int Int))) (= |c_ULTIMATE.start_main_~p~0#1.offset| (select (select (store (store |c_#memory_$Pointer$.offset| |c_ULTIMATE.start_main_~p~0#1.base| v_arrayElimArr_9) |v_ULTIMATE.start_main_~p~0#1.base_62| v_ArrVal_384) |c_ULTIMATE.start_main_~a~0#1.base|) .cse2))) (= |v_ULTIMATE.start_main_~p~0#1.base_62| |c_ULTIMATE.start_main_~a~0#1.base|))))) (or .cse12 (and (forall ((v_arrayElimArr_9 (Array Int Int))) (or (forall ((|v_ULTIMATE.start_main_~p~0#1.base_62| Int)) (or (forall ((v_ArrVal_384 (Array Int Int))) (let ((.cse13 (select (select (store (store |c_#memory_$Pointer$.offset| |c_ULTIMATE.start_main_~p~0#1.base| v_arrayElimArr_9) |v_ULTIMATE.start_main_~p~0#1.base_62| v_ArrVal_384) |c_ULTIMATE.start_main_~a~0#1.base|) .cse2))) (or (= .cse13 0) (= .cse13 |c_ULTIMATE.start_main_~a~0#1.offset|)))) (forall ((v_ArrVal_385 (Array Int Int)) (v_ArrVal_379 (Array Int Int))) (= (select (select (store (store |c_#memory_$Pointer$.base| |c_ULTIMATE.start_main_~p~0#1.base| v_ArrVal_379) |v_ULTIMATE.start_main_~p~0#1.base_62| v_ArrVal_385) |c_ULTIMATE.start_main_~a~0#1.base|) .cse2) |c_ULTIMATE.start_main_~p~0#1.base|)))) (not (= (select v_arrayElimArr_9 .cse0) 0)))) (forall ((|v_ULTIMATE.start_main_~p~0#1.base_62| Int) (v_ArrVal_385 (Array Int Int)) (v_ArrVal_379 (Array Int Int))) (let ((.cse14 (select (select (store (store |c_#memory_$Pointer$.base| |c_ULTIMATE.start_main_~p~0#1.base| v_ArrVal_379) |v_ULTIMATE.start_main_~p~0#1.base_62| v_ArrVal_385) |c_ULTIMATE.start_main_~a~0#1.base|) .cse2))) (or (= .cse14 |v_ULTIMATE.start_main_~p~0#1.base_62|) (= .cse14 |c_ULTIMATE.start_main_~p~0#1.base|) (= .cse14 |c_ULTIMATE.start_main_~a~0#1.base|)))) (forall ((v_arrayElimArr_9 (Array Int Int))) (or (not (= (select v_arrayElimArr_9 .cse0) 0)) (forall ((|v_ULTIMATE.start_main_~p~0#1.base_62| Int)) (or (forall ((v_ArrVal_384 (Array Int Int))) (= (select (select (store (store |c_#memory_$Pointer$.offset| |c_ULTIMATE.start_main_~p~0#1.base| v_arrayElimArr_9) |v_ULTIMATE.start_main_~p~0#1.base_62| v_ArrVal_384) |c_ULTIMATE.start_main_~a~0#1.base|) .cse2) 0)) (forall ((v_ArrVal_385 (Array Int Int)) (v_ArrVal_379 (Array Int Int))) (let ((.cse15 (select (select (store (store |c_#memory_$Pointer$.base| |c_ULTIMATE.start_main_~p~0#1.base| v_ArrVal_379) |v_ULTIMATE.start_main_~p~0#1.base_62| v_ArrVal_385) |c_ULTIMATE.start_main_~a~0#1.base|) .cse2))) (or (= .cse15 |c_ULTIMATE.start_main_~p~0#1.base|) (= .cse15 |c_ULTIMATE.start_main_~a~0#1.base|)))))))) (forall ((v_arrayElimArr_9 (Array Int Int))) (or (not (= (select v_arrayElimArr_9 .cse0) 0)) (forall ((|v_ULTIMATE.start_main_~p~0#1.base_62| Int)) (or (forall ((v_ArrVal_384 (Array Int Int))) (= (select (select (store (store |c_#memory_$Pointer$.offset| |c_ULTIMATE.start_main_~p~0#1.base| v_arrayElimArr_9) |v_ULTIMATE.start_main_~p~0#1.base_62| v_ArrVal_384) |c_ULTIMATE.start_main_~a~0#1.base|) .cse2) |c_ULTIMATE.start_main_~a~0#1.offset|)) (forall ((v_ArrVal_385 (Array Int Int)) (v_ArrVal_379 (Array Int Int))) (let ((.cse16 (select (select (store (store |c_#memory_$Pointer$.base| |c_ULTIMATE.start_main_~p~0#1.base| v_ArrVal_379) |v_ULTIMATE.start_main_~p~0#1.base_62| v_ArrVal_385) |c_ULTIMATE.start_main_~a~0#1.base|) .cse2))) (or (= .cse16 |v_ULTIMATE.start_main_~p~0#1.base_62|) (= .cse16 |c_ULTIMATE.start_main_~p~0#1.base|)))))))))) (forall ((v_arrayElimArr_9 (Array Int Int))) (or (forall ((|v_ULTIMATE.start_main_~p~0#1.base_62| Int) (v_ArrVal_384 (Array Int Int)) (v_ArrVal_385 (Array Int Int)) (v_ArrVal_379 (Array Int Int))) (let ((.cse17 (select (select (store (store |c_#memory_$Pointer$.offset| |c_ULTIMATE.start_main_~p~0#1.base| v_arrayElimArr_9) |v_ULTIMATE.start_main_~p~0#1.base_62| v_ArrVal_384) |c_ULTIMATE.start_main_~a~0#1.base|) .cse2))) (or (= |c_ULTIMATE.start_main_~p~0#1.offset| .cse17) (= .cse17 0) (= |v_ULTIMATE.start_main_~p~0#1.base_62| |c_ULTIMATE.start_main_~a~0#1.base|) (= (select (select (store (store |c_#memory_$Pointer$.base| |c_ULTIMATE.start_main_~p~0#1.base| v_ArrVal_379) |v_ULTIMATE.start_main_~p~0#1.base_62| v_ArrVal_385) |c_ULTIMATE.start_main_~a~0#1.base|) .cse2) |c_ULTIMATE.start_main_~a~0#1.base|)))) (not (= (select v_arrayElimArr_9 .cse0) 0)) (not (= (select v_arrayElimArr_9 4) 0)))) (forall ((v_arrayElimArr_9 (Array Int Int))) (or (not (= (select v_arrayElimArr_9 .cse0) 0)) (forall ((|v_ULTIMATE.start_main_~p~0#1.base_62| Int)) (or (forall ((v_ArrVal_384 (Array Int Int))) (let ((.cse18 (select (select (store (store |c_#memory_$Pointer$.offset| |c_ULTIMATE.start_main_~p~0#1.base| v_arrayElimArr_9) |v_ULTIMATE.start_main_~p~0#1.base_62| v_ArrVal_384) |c_ULTIMATE.start_main_~a~0#1.base|) .cse2))) (or (= |c_ULTIMATE.start_main_~p~0#1.offset| .cse18) (= .cse18 0) (= .cse18 |c_ULTIMATE.start_main_~a~0#1.offset|)))) (= |v_ULTIMATE.start_main_~p~0#1.base_62| |c_ULTIMATE.start_main_~a~0#1.base|))))) (or (and (or (forall ((|v_ULTIMATE.start_main_~p~0#1.base_62| Int) (v_ArrVal_384 (Array Int Int)) (v_ArrVal_385 (Array Int Int)) (v_arrayElimArr_9 (Array Int Int)) (v_ArrVal_379 (Array Int Int))) (let ((.cse19 (select (select (store (store |c_#memory_$Pointer$.offset| |c_ULTIMATE.start_main_~p~0#1.base| v_arrayElimArr_9) |v_ULTIMATE.start_main_~p~0#1.base_62| v_ArrVal_384) |c_ULTIMATE.start_main_~a~0#1.base|) .cse2))) (or (= |c_ULTIMATE.start_main_~p~0#1.offset| .cse19) (= .cse19 0) (not (= (select v_arrayElimArr_9 .cse0) 0)) (= (select (select (store (store |c_#memory_$Pointer$.base| |c_ULTIMATE.start_main_~p~0#1.base| v_ArrVal_379) |v_ULTIMATE.start_main_~p~0#1.base_62| v_ArrVal_385) |c_ULTIMATE.start_main_~a~0#1.base|) .cse2) |c_ULTIMATE.start_main_~a~0#1.base|)))) .cse5) (forall ((v_arrayElimArr_9 (Array Int Int))) (or (not (= (select v_arrayElimArr_9 .cse0) 0)) (forall ((|v_ULTIMATE.start_main_~p~0#1.base_62| Int)) (or (forall ((v_ArrVal_384 (Array Int Int))) (let ((.cse20 (select (select (store (store |c_#memory_$Pointer$.offset| |c_ULTIMATE.start_main_~p~0#1.base| v_arrayElimArr_9) |v_ULTIMATE.start_main_~p~0#1.base_62| v_ArrVal_384) |c_ULTIMATE.start_main_~a~0#1.base|) .cse2))) (or (= |c_ULTIMATE.start_main_~p~0#1.offset| .cse20) (= .cse20 0)))) (forall ((v_ArrVal_385 (Array Int Int)) (v_ArrVal_379 (Array Int Int))) (let ((.cse21 (select (select (store (store |c_#memory_$Pointer$.base| |c_ULTIMATE.start_main_~p~0#1.base| v_ArrVal_379) |v_ULTIMATE.start_main_~p~0#1.base_62| v_ArrVal_385) |c_ULTIMATE.start_main_~a~0#1.base|) .cse2))) (or (= .cse21 |c_ULTIMATE.start_main_~p~0#1.base|) (= .cse21 |c_ULTIMATE.start_main_~a~0#1.base|)))))))) (forall ((v_arrayElimArr_9 (Array Int Int))) (or (not (= (select v_arrayElimArr_9 .cse0) 0)) (forall ((|v_ULTIMATE.start_main_~p~0#1.base_62| Int)) (or (forall ((v_ArrVal_385 (Array Int Int)) (v_ArrVal_379 (Array Int Int))) (let ((.cse22 (select (select (store (store |c_#memory_$Pointer$.base| |c_ULTIMATE.start_main_~p~0#1.base| v_ArrVal_379) |v_ULTIMATE.start_main_~p~0#1.base_62| v_ArrVal_385) |c_ULTIMATE.start_main_~a~0#1.base|) .cse2))) (or (= .cse22 |v_ULTIMATE.start_main_~p~0#1.base_62|) (= .cse22 |c_ULTIMATE.start_main_~p~0#1.base|) (= .cse22 |c_ULTIMATE.start_main_~a~0#1.base|)))) (forall ((v_ArrVal_384 (Array Int Int))) (= |c_ULTIMATE.start_main_~p~0#1.offset| (select (select (store (store |c_#memory_$Pointer$.offset| |c_ULTIMATE.start_main_~p~0#1.base| v_arrayElimArr_9) |v_ULTIMATE.start_main_~p~0#1.base_62| v_ArrVal_384) |c_ULTIMATE.start_main_~a~0#1.base|) .cse2))))))) (forall ((v_arrayElimArr_9 (Array Int Int))) (or (forall ((|v_ULTIMATE.start_main_~p~0#1.base_62| Int)) (or (forall ((v_ArrVal_385 (Array Int Int)) (v_ArrVal_379 (Array Int Int))) (let ((.cse23 (select (select (store (store |c_#memory_$Pointer$.base| |c_ULTIMATE.start_main_~p~0#1.base| v_ArrVal_379) |v_ULTIMATE.start_main_~p~0#1.base_62| v_ArrVal_385) |c_ULTIMATE.start_main_~a~0#1.base|) .cse2))) (or (= .cse23 |v_ULTIMATE.start_main_~p~0#1.base_62|) (= .cse23 |c_ULTIMATE.start_main_~a~0#1.base|)))) (forall ((v_ArrVal_384 (Array Int Int))) (= |c_ULTIMATE.start_main_~p~0#1.offset| (select (select (store (store |c_#memory_$Pointer$.offset| |c_ULTIMATE.start_main_~p~0#1.base| v_arrayElimArr_9) |v_ULTIMATE.start_main_~p~0#1.base_62| v_ArrVal_384) |c_ULTIMATE.start_main_~a~0#1.base|) .cse2))))) (not (= (select v_arrayElimArr_9 .cse0) 0)))) (forall ((v_arrayElimArr_9 (Array Int Int))) (or (not (= (select v_arrayElimArr_9 .cse0) 0)) (forall ((|v_ULTIMATE.start_main_~p~0#1.base_62| Int) (v_ArrVal_384 (Array Int Int))) (let ((.cse24 (select (select (store (store |c_#memory_$Pointer$.offset| |c_ULTIMATE.start_main_~p~0#1.base| v_arrayElimArr_9) |v_ULTIMATE.start_main_~p~0#1.base_62| v_ArrVal_384) |c_ULTIMATE.start_main_~a~0#1.base|) .cse2))) (or (= |c_ULTIMATE.start_main_~p~0#1.offset| .cse24) (= .cse24 0) (= .cse24 |c_ULTIMATE.start_main_~a~0#1.offset|)))))) (forall ((v_arrayElimArr_9 (Array Int Int))) (or (forall ((|v_ULTIMATE.start_main_~p~0#1.base_62| Int)) (or (forall ((v_ArrVal_385 (Array Int Int)) (v_ArrVal_379 (Array Int Int))) (= (select (select (store (store |c_#memory_$Pointer$.base| |c_ULTIMATE.start_main_~p~0#1.base| v_ArrVal_379) |v_ULTIMATE.start_main_~p~0#1.base_62| v_ArrVal_385) |c_ULTIMATE.start_main_~a~0#1.base|) .cse2) |v_ULTIMATE.start_main_~p~0#1.base_62|)) (forall ((v_ArrVal_384 (Array Int Int))) (let ((.cse25 (select (select (store (store |c_#memory_$Pointer$.offset| |c_ULTIMATE.start_main_~p~0#1.base| v_arrayElimArr_9) |v_ULTIMATE.start_main_~p~0#1.base_62| v_ArrVal_384) |c_ULTIMATE.start_main_~a~0#1.base|) .cse2))) (or (= |c_ULTIMATE.start_main_~p~0#1.offset| .cse25) (= .cse25 |c_ULTIMATE.start_main_~a~0#1.offset|)))))) (not (= (select v_arrayElimArr_9 .cse0) 0)))) (forall ((v_arrayElimArr_9 (Array Int Int))) (or (forall ((|v_ULTIMATE.start_main_~p~0#1.base_62| Int)) (or (forall ((v_ArrVal_384 (Array Int Int))) (let ((.cse26 (select (select (store (store |c_#memory_$Pointer$.offset| |c_ULTIMATE.start_main_~p~0#1.base| v_arrayElimArr_9) |v_ULTIMATE.start_main_~p~0#1.base_62| v_ArrVal_384) |c_ULTIMATE.start_main_~a~0#1.base|) .cse2))) (or (= |c_ULTIMATE.start_main_~p~0#1.offset| .cse26) (= .cse26 |c_ULTIMATE.start_main_~a~0#1.offset|)))) (forall ((v_ArrVal_385 (Array Int Int)) (v_ArrVal_379 (Array Int Int))) (let ((.cse27 (select (select (store (store |c_#memory_$Pointer$.base| |c_ULTIMATE.start_main_~p~0#1.base| v_ArrVal_379) |v_ULTIMATE.start_main_~p~0#1.base_62| v_ArrVal_385) |c_ULTIMATE.start_main_~a~0#1.base|) .cse2))) (or (= .cse27 |v_ULTIMATE.start_main_~p~0#1.base_62|) (= .cse27 |c_ULTIMATE.start_main_~p~0#1.base|)))))) (not (= (select v_arrayElimArr_9 .cse0) 0)))) (forall ((v_arrayElimArr_9 (Array Int Int))) (or (not (= (select v_arrayElimArr_9 .cse0) 0)) (forall ((|v_ULTIMATE.start_main_~p~0#1.base_62| Int) (v_ArrVal_384 (Array Int Int)) (v_ArrVal_385 (Array Int Int)) (v_ArrVal_379 (Array Int Int))) (let ((.cse28 (select (select (store (store |c_#memory_$Pointer$.offset| |c_ULTIMATE.start_main_~p~0#1.base| v_arrayElimArr_9) |v_ULTIMATE.start_main_~p~0#1.base_62| v_ArrVal_384) |c_ULTIMATE.start_main_~a~0#1.base|) .cse2))) (or (= |c_ULTIMATE.start_main_~p~0#1.offset| .cse28) (= .cse28 0) (= (select (select (store (store |c_#memory_$Pointer$.base| |c_ULTIMATE.start_main_~p~0#1.base| v_ArrVal_379) |v_ULTIMATE.start_main_~p~0#1.base_62| v_ArrVal_385) |c_ULTIMATE.start_main_~a~0#1.base|) .cse2) |c_ULTIMATE.start_main_~a~0#1.base|)))) (not (= (select v_arrayElimArr_9 4) 0))))) .cse12) (forall ((v_arrayElimArr_9 (Array Int Int))) (or (not (= (select v_arrayElimArr_9 .cse0) 0)) (forall ((|v_ULTIMATE.start_main_~p~0#1.base_62| Int)) (or (forall ((v_ArrVal_384 (Array Int Int))) (= (select (select (store (store |c_#memory_$Pointer$.offset| |c_ULTIMATE.start_main_~p~0#1.base| v_arrayElimArr_9) |v_ULTIMATE.start_main_~p~0#1.base_62| v_ArrVal_384) |c_ULTIMATE.start_main_~a~0#1.base|) .cse2) |c_ULTIMATE.start_main_~a~0#1.offset|)) (= |v_ULTIMATE.start_main_~p~0#1.base_62| |c_ULTIMATE.start_main_~a~0#1.base|) (forall ((v_ArrVal_385 (Array Int Int)) (v_ArrVal_379 (Array Int Int))) (let ((.cse29 (select (select (store (store |c_#memory_$Pointer$.base| |c_ULTIMATE.start_main_~p~0#1.base| v_ArrVal_379) |v_ULTIMATE.start_main_~p~0#1.base_62| v_ArrVal_385) |c_ULTIMATE.start_main_~a~0#1.base|) .cse2))) (or (= .cse29 |v_ULTIMATE.start_main_~p~0#1.base_62|) (= .cse29 |c_ULTIMATE.start_main_~p~0#1.base|)))))))) (forall ((|v_ULTIMATE.start_main_~p~0#1.base_62| Int) (v_ArrVal_385 (Array Int Int)) (v_ArrVal_379 (Array Int Int))) (let ((.cse30 (select (select (store (store |c_#memory_$Pointer$.base| |c_ULTIMATE.start_main_~p~0#1.base| v_ArrVal_379) |v_ULTIMATE.start_main_~p~0#1.base_62| v_ArrVal_385) |c_ULTIMATE.start_main_~a~0#1.base|) .cse2))) (or (= .cse30 |v_ULTIMATE.start_main_~p~0#1.base_62|) (= |v_ULTIMATE.start_main_~p~0#1.base_62| |c_ULTIMATE.start_main_~a~0#1.base|) (= .cse30 |c_ULTIMATE.start_main_~p~0#1.base|) (= .cse30 |c_ULTIMATE.start_main_~a~0#1.base|)))) (forall ((v_arrayElimArr_9 (Array Int Int))) (or (not (= (select v_arrayElimArr_9 .cse0) 0)) (forall ((|v_ULTIMATE.start_main_~p~0#1.base_62| Int)) (or (forall ((v_ArrVal_384 (Array Int Int))) (= (select (select (store (store |c_#memory_$Pointer$.offset| |c_ULTIMATE.start_main_~p~0#1.base| v_arrayElimArr_9) |v_ULTIMATE.start_main_~p~0#1.base_62| v_ArrVal_384) |c_ULTIMATE.start_main_~a~0#1.base|) .cse2) 0)) (forall ((v_ArrVal_385 (Array Int Int)) (v_ArrVal_379 (Array Int Int))) (let ((.cse31 (select (select (store (store |c_#memory_$Pointer$.base| |c_ULTIMATE.start_main_~p~0#1.base| v_ArrVal_379) |v_ULTIMATE.start_main_~p~0#1.base_62| v_ArrVal_385) |c_ULTIMATE.start_main_~a~0#1.base|) .cse2))) (or (= .cse31 |c_ULTIMATE.start_main_~p~0#1.base|) (= .cse31 |c_ULTIMATE.start_main_~a~0#1.base|)))) (= |v_ULTIMATE.start_main_~p~0#1.base_62| |c_ULTIMATE.start_main_~a~0#1.base|))))))))
(check-sat)
(exit)
